TIP.Original.Linear/tip2015_weird_nat_mul3_same.smt2
(set-logic HORN)
(declare-datatypes ((Nat_417 0)) (((zero_99 ) (succ_97 (p_282 Nat_417)))))
(declare-fun diseqNat_417 (Nat_417 Nat_417) Bool)
(declare-fun p_283 (Nat_417 Nat_417) Bool)
(declare-fun iszero_97 (Nat_417) Bool)
(declare-fun issucc_97 (Nat_417) Bool)
(assert (forall ((x_46120 Nat_417))
	(p_283 x_46120 (succ_97 x_46120))))
(assert (iszero_97 zero_99))
(assert (forall ((x_46122 Nat_417))
	(issucc_97 (succ_97 x_46122))))
(assert (forall ((x_46123 Nat_417))
	(diseqNat_417 zero_99 (succ_97 x_46123))))
(assert (forall ((x_46124 Nat_417))
	(diseqNat_417 (succ_97 x_46124) zero_99)))
(assert (forall ((x_46125 Nat_417) (x_46126 Nat_417))
	(=> (diseqNat_417 x_46125 x_46126)
	    (diseqNat_417 (succ_97 x_46125) (succ_97 x_46126)))))
(declare-fun plus_99 (Nat_417 Nat_417 Nat_417) Bool)
(assert (forall ((x_45944 Nat_417) (z_1470 Nat_417) (y_1634 Nat_417))
	(=> (plus_99 x_45944 z_1470 y_1634)
	    (plus_99 (succ_97 x_45944) (succ_97 z_1470) y_1634))))
(assert (forall ((x_45945 Nat_417))
	(plus_99 x_45945 zero_99 x_45945)))
(declare-fun addacc_13 (Nat_417 Nat_417 Nat_417 Nat_417) Bool)
(assert (forall ((x_45946 Nat_417) (x_45925 Nat_417) (y_1635 Nat_417) (z_1471 Nat_417))
	(=> (addacc_13 x_45946 x_45925 (succ_97 y_1635) z_1471)
	    (addacc_13 x_45946 (succ_97 x_45925) y_1635 z_1471))))
(assert (forall ((x_45948 Nat_417) (x_45926 Nat_417) (z_1471 Nat_417))
	(=> (addacc_13 x_45948 zero_99 x_45926 (succ_97 z_1471))
	    (addacc_13 x_45948 zero_99 (succ_97 x_45926) z_1471))))
(assert (forall ((x_45950 Nat_417))
	(addacc_13 x_45950 zero_99 zero_99 x_45950)))
(declare-fun mulacc_5 (Nat_417 Nat_417 Nat_417 Nat_417) Bool)
(assert (forall ((x_45951 Nat_417) (x_45952 Nat_417) (x_45953 Nat_417) (x_45954 Nat_417) (x_45955 Nat_417) (x_45956 Nat_417) (x_45957 Nat_417) (fail_22 Nat_417))
	(=>	(and (mulacc_5 x_45951 zero_99 zero_99 zero_99)
			(mulacc_5 x_45952 (succ_97 zero_99) zero_99 zero_99)
			(mulacc_5 x_45953 zero_99 (succ_97 zero_99) zero_99)
			(mulacc_5 x_45954 zero_99 zero_99 (succ_97 zero_99))
			(addacc_13 x_45955 x_45952 x_45953 x_45954)
			(addacc_13 x_45956 (succ_97 zero_99) (succ_97 zero_99) (succ_97 zero_99))
			(addacc_13 x_45957 x_45951 x_45955 x_45956)
			(plus_99 fail_22 (succ_97 zero_99) x_45957))
		(mulacc_5 (succ_97 zero_99) (succ_97 zero_99) (succ_97 zero_99) (succ_97 zero_99)))))
(assert (forall ((x_45960 Nat_417) (x_45961 Nat_417) (x_45962 Nat_417) (x_45963 Nat_417) (x_45964 Nat_417) (x_45965 Nat_417) (x_45966 Nat_417) (fail_22 Nat_417) (x_45930 Nat_417) (x_45929 Nat_417) (x_45928 Nat_417))
	(=>	(and (diseqNat_417 x_45928 zero_99)
			(mulacc_5 x_45960 x_45928 x_45929 x_45930)
			(mulacc_5 x_45961 (succ_97 zero_99) x_45929 x_45930)
			(mulacc_5 x_45962 x_45928 (succ_97 zero_99) x_45930)
			(mulacc_5 x_45963 x_45928 x_45929 (succ_97 zero_99))
			(addacc_13 x_45964 x_45961 x_45962 x_45963)
			(addacc_13 x_45965 (succ_97 x_45928) (succ_97 x_45929) (succ_97 x_45930))
			(addacc_13 x_45966 x_45960 x_45964 x_45965)
			(plus_99 fail_22 (succ_97 zero_99) x_45966))
		(mulacc_5 fail_22 (succ_97 x_45928) (succ_97 x_45929) (succ_97 x_45930)))))
(assert (forall ((x_45969 Nat_417) (x_45970 Nat_417) (x_45971 Nat_417) (x_45972 Nat_417) (x_45973 Nat_417) (x_45974 Nat_417) (x_45975 Nat_417) (fail_22 Nat_417) (x_45930 Nat_417) (x_45929 Nat_417))
	(=>	(and (diseqNat_417 x_45929 zero_99)
			(mulacc_5 x_45969 zero_99 x_45929 x_45930)
			(mulacc_5 x_45970 (succ_97 zero_99) x_45929 x_45930)
			(mulacc_5 x_45971 zero_99 (succ_97 zero_99) x_45930)
			(mulacc_5 x_45972 zero_99 x_45929 (succ_97 zero_99))
			(addacc_13 x_45973 x_45970 x_45971 x_45972)
			(addacc_13 x_45974 (succ_97 zero_99) (succ_97 x_45929) (succ_97 x_45930))
			(addacc_13 x_45975 x_45969 x_45973 x_45974)
			(plus_99 fail_22 (succ_97 zero_99) x_45975))
		(mulacc_5 fail_22 (succ_97 zero_99) (succ_97 x_45929) (succ_97 x_45930)))))
(assert (forall ((x_45978 Nat_417) (x_45979 Nat_417) (x_45980 Nat_417) (x_45981 Nat_417) (x_45982 Nat_417) (x_45983 Nat_417) (x_45984 Nat_417) (fail_22 Nat_417) (x_45930 Nat_417) (x_45929 Nat_417) (x_45928 Nat_417))
	(=>	(and (diseqNat_417 x_45928 zero_99)
			(mulacc_5 x_45978 x_45928 x_45929 x_45930)
			(mulacc_5 x_45979 (succ_97 zero_99) x_45929 x_45930)
			(mulacc_5 x_45980 x_45928 (succ_97 zero_99) x_45930)
			(mulacc_5 x_45981 x_45928 x_45929 (succ_97 zero_99))
			(addacc_13 x_45982 x_45979 x_45980 x_45981)
			(addacc_13 x_45983 (succ_97 x_45928) (succ_97 x_45929) (succ_97 x_45930))
			(addacc_13 x_45984 x_45978 x_45982 x_45983)
			(plus_99 fail_22 (succ_97 zero_99) x_45984))
		(mulacc_5 fail_22 (succ_97 x_45928) (succ_97 x_45929) (succ_97 x_45930)))))
(assert (forall ((x_45987 Nat_417) (x_45988 Nat_417) (x_45989 Nat_417) (x_45990 Nat_417) (x_45991 Nat_417) (x_45992 Nat_417) (x_45993 Nat_417) (fail_22 Nat_417) (x_45930 Nat_417))
	(=>	(and (diseqNat_417 x_45930 zero_99)
			(mulacc_5 x_45987 zero_99 zero_99 x_45930)
			(mulacc_5 x_45988 (succ_97 zero_99) zero_99 x_45930)
			(mulacc_5 x_45989 zero_99 (succ_97 zero_99) x_45930)
			(mulacc_5 x_45990 zero_99 zero_99 (succ_97 zero_99))
			(addacc_13 x_45991 x_45988 x_45989 x_45990)
			(addacc_13 x_45992 (succ_97 zero_99) (succ_97 zero_99) (succ_97 x_45930))
			(addacc_13 x_45993 x_45987 x_45991 x_45992)
			(plus_99 fail_22 (succ_97 zero_99) x_45993))
		(mulacc_5 fail_22 (succ_97 zero_99) (succ_97 zero_99) (succ_97 x_45930)))))
(assert (forall ((x_45996 Nat_417) (x_45997 Nat_417) (x_45998 Nat_417) (x_45999 Nat_417) (x_46000 Nat_417) (x_46001 Nat_417) (x_46002 Nat_417) (fail_22 Nat_417) (x_45930 Nat_417) (x_45929 Nat_417) (x_45928 Nat_417))
	(=>	(and (diseqNat_417 x_45928 zero_99)
			(mulacc_5 x_45996 x_45928 x_45929 x_45930)
			(mulacc_5 x_45997 (succ_97 zero_99) x_45929 x_45930)
			(mulacc_5 x_45998 x_45928 (succ_97 zero_99) x_45930)
			(mulacc_5 x_45999 x_45928 x_45929 (succ_97 zero_99))
			(addacc_13 x_46000 x_45997 x_45998 x_45999)
			(addacc_13 x_46001 (succ_97 x_45928) (succ_97 x_45929) (succ_97 x_45930))
			(addacc_13 x_46002 x_45996 x_46000 x_46001)
			(plus_99 fail_22 (succ_97 zero_99) x_46002))
		(mulacc_5 fail_22 (succ_97 x_45928) (succ_97 x_45929) (succ_97 x_45930)))))
(assert (forall ((x_46005 Nat_417) (x_46006 Nat_417) (x_46007 Nat_417) (x_46008 Nat_417) (x_46009 Nat_417) (x_46010 Nat_417) (x_46011 Nat_417) (fail_22 Nat_417) (x_45930 Nat_417) (x_45929 Nat_417))
	(=>	(and (diseqNat_417 x_45929 zero_99)
			(mulacc_5 x_46005 zero_99 x_45929 x_45930)
			(mulacc_5 x_46006 (succ_97 zero_99) x_45929 x_45930)
			(mulacc_5 x_46007 zero_99 (succ_97 zero_99) x_45930)
			(mulacc_5 x_46008 zero_99 x_45929 (succ_97 zero_99))
			(addacc_13 x_46009 x_46006 x_46007 x_46008)
			(addacc_13 x_46010 (succ_97 zero_99) (succ_97 x_45929) (succ_97 x_45930))
			(addacc_13 x_46011 x_46005 x_46009 x_46010)
			(plus_99 fail_22 (succ_97 zero_99) x_46011))
		(mulacc_5 fail_22 (succ_97 zero_99) (succ_97 x_45929) (succ_97 x_45930)))))
(assert (forall ((x_46014 Nat_417) (x_46015 Nat_417) (x_46016 Nat_417) (x_46017 Nat_417) (x_46018 Nat_417) (x_46019 Nat_417) (x_46020 Nat_417) (fail_22 Nat_417) (x_45930 Nat_417) (x_45929 Nat_417) (x_45928 Nat_417))
	(=>	(and (diseqNat_417 x_45928 zero_99)
			(mulacc_5 x_46014 x_45928 x_45929 x_45930)
			(mulacc_5 x_46015 (succ_97 zero_99) x_45929 x_45930)
			(mulacc_5 x_46016 x_45928 (succ_97 zero_99) x_45930)
			(mulacc_5 x_46017 x_45928 x_45929 (succ_97 zero_99))
			(addacc_13 x_46018 x_46015 x_46016 x_46017)
			(addacc_13 x_46019 (succ_97 x_45928) (succ_97 x_45929) (succ_97 x_45930))
			(addacc_13 x_46020 x_46014 x_46018 x_46019)
			(plus_99 fail_22 (succ_97 zero_99) x_46020))
		(mulacc_5 fail_22 (succ_97 x_45928) (succ_97 x_45929) (succ_97 x_45930)))))
(assert (forall ((x_45929 Nat_417) (x_45928 Nat_417))
	(mulacc_5 zero_99 (succ_97 x_45928) (succ_97 x_45929) zero_99)))
(assert (forall ((x_45928 Nat_417) (z_1472 Nat_417))
	(mulacc_5 zero_99 (succ_97 x_45928) zero_99 z_1472)))
(assert (forall ((y_1636 Nat_417) (z_1472 Nat_417))
	(mulacc_5 zero_99 zero_99 y_1636 z_1472)))
(declare-fun add_264 (Nat_417 Nat_417 Nat_417 Nat_417) Bool)
(assert (forall ((x_46026 Nat_417) (x_46027 Nat_417) (x_45932 Nat_417) (y_1637 Nat_417) (z_1473 Nat_417))
	(=>	(and (add_264 x_46027 x_45932 y_1637 z_1473)
			(plus_99 x_46026 (succ_97 zero_99) x_46027))
		(add_264 x_46026 (succ_97 x_45932) y_1637 z_1473))))
(assert (forall ((x_46029 Nat_417) (x_46030 Nat_417) (x_45933 Nat_417) (z_1473 Nat_417))
	(=>	(and (add_264 x_46030 zero_99 x_45933 z_1473)
			(plus_99 x_46029 (succ_97 zero_99) x_46030))
		(add_264 x_46029 zero_99 (succ_97 x_45933) z_1473))))
(assert (forall ((x_46032 Nat_417))
	(add_264 x_46032 zero_99 zero_99 x_46032)))
(declare-fun mul_7 (Nat_417 Nat_417 Nat_417 Nat_417) Bool)
(assert (forall ((x_46033 Nat_417) (x_46034 Nat_417) (x_46035 Nat_417) (x_46036 Nat_417) (x_46037 Nat_417) (x_46038 Nat_417) (x_46039 Nat_417) (fail_23 Nat_417))
	(=>	(and (mul_7 x_46033 zero_99 zero_99 zero_99)
			(mul_7 x_46034 (succ_97 zero_99) zero_99 zero_99)
			(mul_7 x_46035 zero_99 (succ_97 zero_99) zero_99)
			(mul_7 x_46036 zero_99 zero_99 (succ_97 zero_99))
			(add_264 x_46037 x_46034 x_46035 x_46036)
			(add_264 x_46038 zero_99 zero_99 zero_99)
			(add_264 x_46039 x_46033 x_46037 x_46038)
			(plus_99 fail_23 (succ_97 zero_99) x_46039))
		(mul_7 (succ_97 zero_99) (succ_97 zero_99) (succ_97 zero_99) (succ_97 zero_99)))))
(assert (forall ((x_46042 Nat_417) (x_46043 Nat_417) (x_46044 Nat_417) (x_46045 Nat_417) (x_46046 Nat_417) (x_46047 Nat_417) (x_46048 Nat_417) (fail_23 Nat_417) (x_45937 Nat_417) (x_45936 Nat_417) (x_45935 Nat_417))
	(=>	(and (diseqNat_417 x_45935 zero_99)
			(mul_7 x_46042 x_45935 x_45936 x_45937)
			(mul_7 x_46043 (succ_97 zero_99) x_45936 x_45937)
			(mul_7 x_46044 x_45935 (succ_97 zero_99) x_45937)
			(mul_7 x_46045 x_45935 x_45936 (succ_97 zero_99))
			(add_264 x_46046 x_46043 x_46044 x_46045)
			(add_264 x_46047 x_45935 x_45936 x_45937)
			(add_264 x_46048 x_46042 x_46046 x_46047)
			(plus_99 fail_23 (succ_97 zero_99) x_46048))
		(mul_7 fail_23 (succ_97 x_45935) (succ_97 x_45936) (succ_97 x_45937)))))
(assert (forall ((x_46051 Nat_417) (x_46052 Nat_417) (x_46053 Nat_417) (x_46054 Nat_417) (x_46055 Nat_417) (x_46056 Nat_417) (x_46057 Nat_417) (fail_23 Nat_417) (x_45937 Nat_417) (x_45936 Nat_417))
	(=>	(and (diseqNat_417 x_45936 zero_99)
			(mul_7 x_46051 zero_99 x_45936 x_45937)
			(mul_7 x_46052 (succ_97 zero_99) x_45936 x_45937)
			(mul_7 x_46053 zero_99 (succ_97 zero_99) x_45937)
			(mul_7 x_46054 zero_99 x_45936 (succ_97 zero_99))
			(add_264 x_46055 x_46052 x_46053 x_46054)
			(add_264 x_46056 zero_99 x_45936 x_45937)
			(add_264 x_46057 x_46051 x_46055 x_46056)
			(plus_99 fail_23 (succ_97 zero_99) x_46057))
		(mul_7 fail_23 (succ_97 zero_99) (succ_97 x_45936) (succ_97 x_45937)))))
(assert (forall ((x_46060 Nat_417) (x_46061 Nat_417) (x_46062 Nat_417) (x_46063 Nat_417) (x_46064 Nat_417) (x_46065 Nat_417) (x_46066 Nat_417) (fail_23 Nat_417) (x_45937 Nat_417) (x_45936 Nat_417) (x_45935 Nat_417))
	(=>	(and (diseqNat_417 x_45935 zero_99)
			(mul_7 x_46060 x_45935 x_45936 x_45937)
			(mul_7 x_46061 (succ_97 zero_99) x_45936 x_45937)
			(mul_7 x_46062 x_45935 (succ_97 zero_99) x_45937)
			(mul_7 x_46063 x_45935 x_45936 (succ_97 zero_99))
			(add_264 x_46064 x_46061 x_46062 x_46063)
			(add_264 x_46065 x_45935 x_45936 x_45937)
			(add_264 x_46066 x_46060 x_46064 x_46065)
			(plus_99 fail_23 (succ_97 zero_99) x_46066))
		(mul_7 fail_23 (succ_97 x_45935) (succ_97 x_45936) (succ_97 x_45937)))))
(assert (forall ((x_46069 Nat_417) (x_46070 Nat_417) (x_46071 Nat_417) (x_46072 Nat_417) (x_46073 Nat_417) (x_46074 Nat_417) (x_46075 Nat_417) (fail_23 Nat_417) (x_45937 Nat_417))
	(=>	(and (diseqNat_417 x_45937 zero_99)
			(mul_7 x_46069 zero_99 zero_99 x_45937)
			(mul_7 x_46070 (succ_97 zero_99) zero_99 x_45937)
			(mul_7 x_46071 zero_99 (succ_97 zero_99) x_45937)
			(mul_7 x_46072 zero_99 zero_99 (succ_97 zero_99))
			(add_264 x_46073 x_46070 x_46071 x_46072)
			(add_264 x_46074 zero_99 zero_99 x_45937)
			(add_264 x_46075 x_46069 x_46073 x_46074)
			(plus_99 fail_23 (succ_97 zero_99) x_46075))
		(mul_7 fail_23 (succ_97 zero_99) (succ_97 zero_99) (succ_97 x_45937)))))
(assert (forall ((x_46078 Nat_417) (x_46079 Nat_417) (x_46080 Nat_417) (x_46081 Nat_417) (x_46082 Nat_417) (x_46083 Nat_417) (x_46084 Nat_417) (fail_23 Nat_417) (x_45937 Nat_417) (x_45936 Nat_417) (x_45935 Nat_417))
	(=>	(and (diseqNat_417 x_45935 zero_99)
			(mul_7 x_46078 x_45935 x_45936 x_45937)
			(mul_7 x_46079 (succ_97 zero_99) x_45936 x_45937)
			(mul_7 x_46080 x_45935 (succ_97 zero_99) x_45937)
			(mul_7 x_46081 x_45935 x_45936 (succ_97 zero_99))
			(add_264 x_46082 x_46079 x_46080 x_46081)
			(add_264 x_46083 x_45935 x_45936 x_45937)
			(add_264 x_46084 x_46078 x_46082 x_46083)
			(plus_99 fail_23 (succ_97 zero_99) x_46084))
		(mul_7 fail_23 (succ_97 x_45935) (succ_97 x_45936) (succ_97 x_45937)))))
(assert (forall ((x_46087 Nat_417) (x_46088 Nat_417) (x_46089 Nat_417) (x_46090 Nat_417) (x_46091 Nat_417) (x_46092 Nat_417) (x_46093 Nat_417) (fail_23 Nat_417) (x_45937 Nat_417) (x_45936 Nat_417))
	(=>	(and (diseqNat_417 x_45936 zero_99)
			(mul_7 x_46087 zero_99 x_45936 x_45937)
			(mul_7 x_46088 (succ_97 zero_99) x_45936 x_45937)
			(mul_7 x_46089 zero_99 (succ_97 zero_99) x_45937)
			(mul_7 x_46090 zero_99 x_45936 (succ_97 zero_99))
			(add_264 x_46091 x_46088 x_46089 x_46090)
			(add_264 x_46092 zero_99 x_45936 x_45937)
			(add_264 x_46093 x_46087 x_46091 x_46092)
			(plus_99 fail_23 (succ_97 zero_99) x_46093))
		(mul_7 fail_23 (succ_97 zero_99) (succ_97 x_45936) (succ_97 x_45937)))))
(assert (forall ((x_46096 Nat_417) (x_46097 Nat_417) (x_46098 Nat_417) (x_46099 Nat_417) (x_46100 Nat_417) (x_46101 Nat_417) (x_46102 Nat_417) (fail_23 Nat_417) (x_45937 Nat_417) (x_45936 Nat_417) (x_45935 Nat_417))
	(=>	(and (diseqNat_417 x_45935 zero_99)
			(mul_7 x_46096 x_45935 x_45936 x_45937)
			(mul_7 x_46097 (succ_97 zero_99) x_45936 x_45937)
			(mul_7 x_46098 x_45935 (succ_97 zero_99) x_45937)
			(mul_7 x_46099 x_45935 x_45936 (succ_97 zero_99))
			(add_264 x_46100 x_46097 x_46098 x_46099)
			(add_264 x_46101 x_45935 x_45936 x_45937)
			(add_264 x_46102 x_46096 x_46100 x_46101)
			(plus_99 fail_23 (succ_97 zero_99) x_46102))
		(mul_7 fail_23 (succ_97 x_45935) (succ_97 x_45936) (succ_97 x_45937)))))
(assert (forall ((x_45936 Nat_417) (x_45935 Nat_417))
	(mul_7 zero_99 (succ_97 x_45935) (succ_97 x_45936) zero_99)))
(assert (forall ((x_45935 Nat_417) (z_1474 Nat_417))
	(mul_7 zero_99 (succ_97 x_45935) zero_99 z_1474)))
(assert (forall ((y_1638 Nat_417) (z_1474 Nat_417))
	(mul_7 zero_99 zero_99 y_1638 z_1474)))
(assert (forall ((x_46108 Nat_417) (x_46109 Nat_417) (x_45938 Nat_417) (y_1639 Nat_417) (z_1475 Nat_417))
	(=>	(and true
			(diseqNat_417 x_46108 x_46109)
			(mul_7 x_46108 x_45938 y_1639 z_1475)
			(mulacc_5 x_46109 x_45938 y_1639 z_1475))
		false)))
(assert (forall ((x_46110 Nat_417) (x_46111 Nat_417) (x_46112 Nat_417) (x_46113 Nat_417) (x_45939 Nat_417) (y_1640 Nat_417) (z_1476 Nat_417))
	(=>	(and true
			(diseqNat_417 x_46111 x_46113)
			(plus_99 x_46110 y_1640 z_1476)
			(plus_99 x_46111 x_45939 x_46110)
			(plus_99 x_46112 x_45939 y_1640)
			(plus_99 x_46113 x_46112 z_1476))
		false)))
(assert (forall ((x_46114 Nat_417) (x_46115 Nat_417) (x_45940 Nat_417) (y_1641 Nat_417))
	(=>	(and true
			(diseqNat_417 x_46114 x_46115)
			(plus_99 x_46114 x_45940 y_1641)
			(plus_99 x_46115 y_1641 x_45940))
		false)))
(assert (forall ((x_46116 Nat_417) (x_45941 Nat_417))
	(=>	(and true
			(diseqNat_417 x_46116 x_45941)
			(plus_99 x_46116 x_45941 zero_99))
		false)))
(assert (forall ((x_46117 Nat_417) (x_45942 Nat_417))
	(=>	(and true
			(diseqNat_417 x_46117 x_45942)
			(plus_99 x_46117 zero_99 x_45942))
		false)))
(check-sat)
